273
9
275
30
206
219
12
279
105
272
120
123
104
225
46
214
291
9
55
182
60
262
212
12
173
61
233
46
201
279
171
3
134
24
59
289
98
279
238
118
88
104
106
42
11
202
21
246
218
26
34
147
138
162
189
144
218
74
122
47
180
244
156
55
132
261
66
79
153
274
64
190
11
122
61
136
190
116
147
144
116
5
146
235
189
209
176
203
191
6
167
133
147
202
238
184
171
80
72
282
